// from the Wikipedia page
//  A > B = 5/9   B > C = 5/9  C > A = 5/9

m = 3; // number of dice
n = 6; // number of sides of each die
d = 
[
   [2,2,4,4,9,9], // die A
   [1,1,6,6,8,8], // die B
   [3,3,5,5,7,7]  // die C
];
